20638
20638
20638
20638
20638
20638
20517.5
20517.5
20255.7
19873.2
19873.2
19873.2
19873.2
19873.2
19873.2
19873.2
19873.2
19873.2
19873.2
19724
18811.1
18811.1
18811.1
18811.1
18811.1
18811.1
18811.1
18811.1
18811.1
18811.1
18800
18654.7
18416.6
18416.6
18352.6
18352.6
18352.6
18352.6
18352.6
18352.6
18240.3
18240.3
18240.3
17938.9
17938.9
17938.9
17938.9
17938.9
17938.9
17938.9
17908.2
17908.2
17908.2
17612
17612
17612
17612
17612
17483.8
16836.3
16836.3
16836.3
16836.3
16836.3
16836.3
16836.3
16836.3
16836.3
16836.3
16836.3
16836.3
16836.3
16836.3
16836.3
16836.3
16836.3
16654.4
16654.4
16654.4
16654.4
16654.4
16654.4
16654.4
16654.4
16530.7
16231.1
16231.1
16231.1
16231.1
16231.1
16231.1
16231.1
16231.1
16231.1
16231.1
16166.9
16163.8
16163.8
16141.6
16141.6
